# Objective value = 182
WA1n 0
WA1p 0
WA2n 1
WA2p 0
WB1n 0
WB1p 0
WB2n 1
WB2p 0
WC1n 0
WC1p 0
WC2n 0
WC2p 1
WD1n 1
WD1p 0
WD2n 1
WD2p 0
WE1n 2
WE1p 0
WF1n 0
WF1p 2
WG1n 5
WG1p 0
WG2n 1
WG2p 0
WH1n 7
WH1p 0
WH2n 1
WH2p 0
WI1n 0
WI1p 7
WI2n 0
WI2p 1
WJ1n 20
WJ1p 0
WJ2n 1
WJ2p 0
WK1n 20
WK1p 0
WK2n 1
WK2p 0
WL1n 20
WL1p 0
WL2n 1
WL2p 0
WM1n 20
WM1p 0
WM2n 1
WM2p 0
WN1n 20
WN1p 0
WN2n 1
WN2p 0
WO1n 0
WO1p 20
WO2n 0
WO2p 1
WT1n 0
WT1p 10
WT2n 0
WT2p 1
5 7
a 0
b 0
c 0
d 0
e 0
f 1
g 0
h 0
i 0
j 1
k 0
l 0
m 0
n 0
o 1
p 1
q 0
r 0
s 0
t 0
u 0
v 0
w 0
x 0
y 0
z 0
aa 1
ab 1
ac 1
ad 1
